c NeuroCodeBench 2.0 CNF formula with verdict Sat
p cnf 8 32
7 3 2 8 -6 -5 0
5 3 6 -4 -1 0
4 2 7 5 1 -8 -3 0
1 -3 0
3 6 1 -5 0
5 4 6 -1 -8 -3 0
8 3 -1 -5 -2 -4 -6 0
5 -1 -6 0
5 2 -3 -6 -8 -1 -7 0
7 -6 -8 0
3 2 8 -7 -1 -4 0
4 6 2 -5 -1 -8 0
4 2 7 6 -5 -3 0
2 4 0
7 5 8 -6 -1 0
6 7 8 -4 0
3 5 -4 -8 -1 -6 -7 0
7 -3 0
-5 -1 -8 0
1 3 -6 -8 -4 -2 -5 0
-3 0
-8 -6 -2 -5 0
5 -7 0
8 7 2 -4 0
1 8 4 -6 -2 0
8 6 5 -2 -7 0
-8 -7 0
2 8 5 3 4 -1 -6 0
3 7 1 5 -6 -4 0
2 8 6 5 7 -1 -3 0
3 2 -4 -8 0
3 -8 0
